NAME: cuum460.tsp
TYPE: TSP
COMMENT: User-generated TSP file
DIMENSION: 460
EDGE_WEIGHT_TYPE: EUC_2D
NODE_COORD_SECTION
1 34.0 341.0
2 282.0 431.0
3 381.0 67.0
4 346.0 223.0
5 91.0 3.0
6 100.0 248.0
7 347.0 172.0
8 219.0 56.0
9 390.0 161.0
10 92.0 346.0
11 36.0 106.0
12 231.0 352.0
13 215.0 140.0
14 417.0 138.0
15 386.0 206.0
16 184.0 363.0
17 215.0 218.0
18 156.0 177.0
19 295.0 184.0
20 80.0 446.0
21 372.0 230.0
22 185.0 293.0
23 432.0 95.0
24 4.0 136.0
25 270.0 301.0
26 146.0 153.0
27 255.0 460.0
28 262.0 315.0
29 43.0 195.0
30 458.0 203.0
31 316.0 390.0
32 279.0 11.0
33 94.0 235.0
34 287.0 137.0
35 235.0 317.0
36 377.0 298.0
37 304.0 287.0
38 381.0 114.0
39 19.0 275.0
40 276.0 4.0
41 13.0 415.0
42 144.0 301.0
43 50.0 365.0
44 349.0 346.0
45 406.0 72.0
46 408.0 169.0
47 94.0 321.0
48 213.0 153.0
49 334.0 122.0
50 346.0 45.0
51 375.0 240.0
52 113.0 82.0
53 99.0 16.0
54 337.0 93.0
55 188.0 79.0
56 436.0 165.0
57 86.0 99.0
58 107.0 55.0
59 61.0 263.0
60 201.0 29.0
61 242.0 456.0
62 412.0 344.0
63 136.0 214.0
64 253.0 405.0
65 137.0 253.0
66 298.0 443.0
67 5.0 291.0
68 58.0 118.0
69 460.0 169.0
70 319.0 336.0
71 268.0 58.0
72 366.0 263.0
73 69.0 52.0
74 359.0 167.0
75 314.0 281.0
76 398.0 182.0
77 389.0 226.0
78 108.0 279.0
79 363.0 201.0
80 341.0 157.0
81 174.0 319.0
82 312.0 40.0
83 285.0 91.0
84 13.0 102.0
85 209.0 16.0
86 262.0 331.0
87 249.0 96.0
88 3.0 69.0
89 159.0 95.0
90 379.0 437.0
91 181.0 393.0
92 66.0 300.0
93 208.0 326.0
94 19.0 417.0
95 125.0 222.0
96 21.0 136.0
97 175.0 251.0
98 126.0 135.0
99 295.0 112.0
100 190.0 232.0
101 175.0 188.0
102 83.0 86.0
103 37.0 375.0
104 62.0 60.0
105 154.0 189.0
106 347.0 319.0
107 384.0 247.0
108 420.0 68.0
109 444.0 335.0
110 374.0 176.0
111 133.0 57.0
112 444.0 57.0
113 174.0 132.0
114 398.0 455.0
115 157.0 167.0
116 187.0 147.0
117 135.0 358.0
118 141.0 168.0
119 269.0 58.0
120 200.0 320.0
121 426.0 431.0
122 10.0 347.0
123 86.0 230.0
124 273.0 431.0
125 282.0 429.0
126 17.0 205.0
127 387.0 361.0
128 342.0 364.0
129 273.0 106.0
130 143.0 347.0
131 22.0 439.0
132 245.0 439.0
133 434.0 414.0
134 433.0 48.0
135 369.0 300.0
136 26.0 342.0
137 179.0 170.0
138 46.0 248.0
139 258.0 131.0
140 389.0 31.0
141 323.0 46.0
142 144.0 226.0
143 309.0 355.0
144 282.0 221.0
145 307.0 285.0
146 263.0 212.0
147 379.0 291.0
148 150.0 114.0
149 73.0 327.0
150 390.0 148.0
151 142.0 396.0
152 348.0 456.0
153 256.0 125.0
154 320.0 127.0
155 307.0 135.0
156 42.0 20.0
157 351.0 406.0
158 263.0 354.0
159 46.0 259.0
160 142.0 343.0
161 303.0 211.0
162 143.0 92.0
163 274.0 322.0
164 46.0 165.0
165 194.0 440.0
166 416.0 218.0
167 90.0 242.0
168 432.0 5.0
169 301.0 114.0
170 308.0 325.0
171 90.0 62.0
172 63.0 59.0
173 256.0 12.0
174 28.0 350.0
175 26.0 312.0
176 50.0 34.0
177 438.0 110.0
178 350.0 140.0
179 25.0 5.0
180 306.0 331.0
181 172.0 11.0
182 11.0 33.0
183 370.0 117.0
184 50.0 381.0
185 81.0 105.0
186 384.0 107.0
187 276.0 411.0
188 274.0 22.0
189 258.0 233.0
190 399.0 258.0
191 262.0 92.0
192 383.0 375.0
193 419.0 70.0
194 62.0 3.0
195 378.0 270.0
196 25.0 209.0
197 315.0 61.0
198 200.0 309.0
199 110.0 116.0
200 141.0 333.0
201 235.0 393.0
202 253.0 126.0
203 224.0 56.0
204 338.0 152.0
205 362.0 340.0
206 458.0 68.0
207 347.0 275.0
208 327.0 124.0
209 288.0 220.0
210 330.0 205.0
211 89.0 367.0
212 456.0 201.0
213 109.0 434.0
214 361.0 102.0
215 27.0 402.0
216 75.0 333.0
217 167.0 86.0
218 230.0 237.0
219 173.0 122.0
220 304.0 164.0
221 130.0 239.0
222 420.0 353.0
223 230.0 205.0
224 320.0 98.0
225 3.0 36.0
226 286.0 112.0
227 383.0 262.0
228 451.0 326.0
229 36.0 449.0
230 318.0 202.0
231 224.0 263.0
232 146.0 287.0
233 77.0 234.0
234 388.0 172.0
235 19.0 152.0
236 116.0 359.0
237 279.0 452.0
238 423.0 417.0
239 57.0 104.0
240 367.0 4.0
241 136.0 336.0
242 75.0 68.0
243 371.0 54.0
244 406.0 303.0
245 329.0 287.0
246 77.0 446.0
247 359.0 164.0
248 390.0 83.0
249 106.0 197.0
250 210.0 70.0
251 88.0 118.0
252 26.0 320.0
253 372.0 440.0
254 2.0 110.0
255 46.0 142.0
256 182.0 401.0
257 103.0 263.0
258 335.0 207.0
259 290.0 161.0
260 438.0 264.0
261 371.0 200.0
262 410.0 339.0
263 130.0 313.0
264 187.0 344.0
265 324.0 291.0
266 101.0 13.0
267 113.0 355.0
268 65.0 230.0
269 455.0 268.0
270 335.0 117.0
271 294.0 177.0
272 206.0 200.0
273 242.0 264.0
274 365.0 392.0
275 402.0 105.0
276 108.0 333.0
277 284.0 275.0
278 250.0 194.0
279 130.0 404.0
280 194.0 134.0
281 176.0 290.0
282 278.0 323.0
283 115.0 268.0
284 316.0 143.0
285 14.0 102.0
286 205.0 85.0
287 192.0 153.0
288 16.0 24.0
289 157.0 362.0
290 285.0 365.0
291 177.0 378.0
292 48.0 150.0
293 457.0 199.0
294 118.0 367.0
295 294.0 63.0
296 60.0 112.0
297 288.0 115.0
298 239.0 417.0
299 151.0 390.0
300 93.0 226.0
301 73.0 26.0
302 169.0 109.0
303 19.0 68.0
304 402.0 67.0
305 51.0 331.0
306 136.0 146.0
307 61.0 374.0
308 352.0 192.0
309 250.0 245.0
310 70.0 296.0
311 454.0 445.0
312 446.0 86.0
313 202.0 222.0
314 197.0 252.0
315 355.0 18.0
316 374.0 323.0
317 122.0 444.0
318 23.0 454.0
319 16.0 197.0
320 259.0 410.0
321 205.0 8.0
322 37.0 12.0
323 137.0 46.0
324 226.0 118.0
325 236.0 172.0
326 60.0 147.0
327 305.0 246.0
328 309.0 24.0
329 11.0 77.0
330 73.0 316.0
331 145.0 113.0
332 451.0 245.0
333 395.0 197.0
334 56.0 427.0
335 163.0 247.0
336 255.0 168.0
337 65.0 274.0
338 423.0 460.0
339 105.0 367.0
340 261.0 34.0
341 359.0 7.0
342 239.0 187.0
343 215.0 430.0
344 110.0 296.0
345 116.0 166.0
346 6.0 433.0
347 63.0 387.0
348 227.0 426.0
349 325.0 376.0
350 144.0 174.0
351 163.0 368.0
352 94.0 9.0
353 265.0 273.0
354 397.0 120.0
355 6.0 3.0
356 349.0 143.0
357 404.0 200.0
358 410.0 40.0
359 50.0 321.0
360 433.0 280.0
361 317.0 259.0
362 301.0 2.0
363 233.0 117.0
364 87.0 373.0
365 393.0 141.0
366 186.0 282.0
367 70.0 63.0
368 36.0 182.0
369 368.0 237.0
370 349.0 301.0
371 131.0 84.0
372 60.0 119.0
373 86.0 355.0
374 268.0 52.0
375 275.0 373.0
376 51.0 49.0
377 88.0 32.0
378 413.0 418.0
379 123.0 208.0
380 394.0 8.0
381 186.0 365.0
382 147.0 427.0
383 361.0 307.0
384 132.0 417.0
385 224.0 34.0
386 225.0 403.0
387 284.0 152.0
388 288.0 243.0
389 205.0 159.0
390 276.0 115.0
391 188.0 194.0
392 445.0 208.0
393 389.0 96.0
394 126.0 212.0
395 364.0 99.0
396 292.0 300.0
397 103.0 445.0
398 188.0 414.0
399 403.0 301.0
400 118.0 77.0
401 244.0 164.0
402 37.0 167.0
403 240.0 176.0
404 353.0 375.0
405 310.0 325.0
406 138.0 196.0
407 53.0 224.0
408 166.0 432.0
409 125.0 403.0
410 136.0 448.0
411 446.0 177.0
412 250.0 377.0
413 272.0 53.0
414 269.0 49.0
415 140.0 192.0
416 358.0 447.0
417 442.0 33.0
418 181.0 17.0
419 306.0 105.0
420 124.0 383.0
421 459.0 166.0
422 212.0 333.0
423 15.0 206.0
424 220.0 136.0
425 309.0 370.0
426 263.0 145.0
427 208.0 151.0
428 126.0 285.0
429 221.0 51.0
430 52.0 121.0
431 413.0 193.0
432 120.0 29.0
433 75.0 387.0
434 44.0 76.0
435 139.0 107.0
436 369.0 223.0
437 395.0 124.0
438 428.0 43.0
439 421.0 218.0
440 247.0 144.0
441 355.0 217.0
442 310.0 20.0
443 35.0 103.0
444 391.0 369.0
445 111.0 455.0
446 71.0 314.0
447 134.0 135.0
448 95.0 386.0
449 383.0 305.0
450 435.0 380.0
451 164.0 22.0
452 168.0 272.0
453 363.0 94.0
454 316.0 403.0
455 102.0 33.0
456 161.0 74.0
457 15.0 456.0
458 115.0 206.0
459 343.0 291.0
460 313.0 322.0
EOF





